This is Ipopt version 3.12.13, running with linear solver ma57.

Number of nonzeros in equality constraint Jacobian...:        0
Number of nonzeros in inequality constraint Jacobian.:      744
Number of nonzeros in Lagrangian Hessian.............:       21

Total number of variables............................:        6
                     variables with only lower bounds:        0
                variables with lower and upper bounds:        6
                     variables with only upper bounds:        0
Total number of equality constraints.................:        0
Total number of inequality constraints...............:      124
        inequality constraints with only lower bounds:        0
   inequality constraints with lower and upper bounds:        0
        inequality constraints with only upper bounds:      124

iter    objective    inf_pr   inf_du lg(mu)  ||d||  lg(rg) alpha_du alpha_pr  ls
   0  9.0015470e-02 0.00e+00 1.98e+00   0.0 0.00e+00    -  0.00e+00 0.00e+00   0
   1  8.9645203e-02 0.00e+00 2.91e-02  -4.1 2.65e-03    -  9.71e-01 1.00e+00f  1
   2  7.8591399e-02 0.00e+00 1.16e-02  -5.7 8.36e-02    -  6.09e-01 1.00e+00h  1
   3  7.0933746e-02 0.00e+00 3.01e-03  -6.1 5.90e-02    -  7.41e-01 1.00e+00h  1
   4  7.9989312e-02 0.00e+00 4.10e-02  -2.8 1.66e-01    -  9.91e-01 1.00e+00h  1
   5  8.2535408e-02 0.00e+00 7.33e-03  -2.5 1.70e-01    -  1.00e+00 7.91e-01h  1
   6  8.5049479e-02 0.00e+00 1.41e-03  -2.5 1.07e-01    -  1.00e+00 1.00e+00f  1
   7  8.3713199e-02 0.00e+00 5.06e-06  -2.5 5.24e-02    -  1.00e+00 1.00e+00h  1
   8  7.7456867e-02 0.00e+00 3.00e-02  -8.5 8.03e-02    -  6.24e-01 1.00e+00f  1
   9  7.3024143e-02 0.00e+00 8.92e-04  -3.3 1.05e-01    -  1.00e+00 9.29e-01h  1
iter    objective    inf_pr   inf_du lg(mu)  ||d||  lg(rg) alpha_du alpha_pr  ls
  10  7.2498410e-02 0.00e+00 5.92e-06  -3.4 5.11e-02    -  1.00e+00 1.00e+00h  1
  11  7.0972481e-02 0.00e+00 4.33e-03  -3.7 6.38e-02    -  9.93e-01 1.00e+00h  1
  12  7.0067959e-02 0.00e+00 1.12e-03  -3.8 1.15e-01    -  1.00e+00 9.00e-01h  1
  13  6.9362370e-02 0.00e+00 6.18e-06  -5.0 1.15e-02    -  1.00e+00 9.97e-01h  1
  14  6.9268790e-02 0.00e+00 7.61e-07 -11.0 2.80e-03    -  9.89e-01 9.93e-01h  1

Number of Iterations....: 14

                                   (scaled)                 (unscaled)
Objective...............:   6.9268790490863250e-02    6.9268790490863250e-02
Dual infeasibility......:   7.6086924857754267e-07    7.6086924857754267e-07
Constraint violation....:   0.0000000000000000e+00    0.0000000000000000e+00
Complementarity.........:   4.0708720855971896e-07    4.0708720855971896e-07
Overall NLP error.......:   7.6086924857754267e-07    7.6086924857754267e-07


Number of objective function evaluations             = 15
Number of objective gradient evaluations             = 15
Number of equality constraint evaluations            = 0
Number of inequality constraint evaluations          = 15
Number of equality constraint Jacobian evaluations   = 0
Number of inequality constraint Jacobian evaluations = 15
Number of Lagrangian Hessian evaluations             = 14
Total CPU secs in IPOPT (w/o function evaluations)   =      0.034
Total CPU secs in NLP function evaluations           =      0.023

EXIT: Optimal Solution Found.
